<number of tasks>
100

<cycle time>
1000

<order strength>
0.605


<task times>
1 309
2 200
3 68
4 142
5 133
6 39
7 202
8 144
9 127
10 61
11 356
12 259
13 114
14 196
15 189
16 70
17 36
18 115
19 72
20 56
21 209
22 242
23 117
24 186
25 64
26 143
27 209
28 83
29 56
30 113
31 183
32 60
33 137
34 136
35 69
36 79
37 176
38 124
39 60
40 98
41 180
42 228
43 210
44 184
45 109
46 195
47 58
48 71
49 48
50 272
51 54
52 20
53 138
54 154
55 103
56 124
57 25
58 85
59 129
60 221
61 128
62 140
63 30
64 83
65 251
66 153
67 297
68 163
69 61
70 322
71 128
72 53
73 196
74 263
75 84
76 160
77 199
78 83
79 266
80 216
81 47
82 68
83 341
84 87
85 87
86 243
87 188
88 137
89 137
90 122
91 220
92 215
93 74
94 92
95 70
96 27
97 322
98 48
99 179
100 316

<precedence relations>
1,6
2,7
3,5
3,8
3,9
3,10
4,8
4,9
4,10
5,11
6,13
7,12
8,14
8,15
9,14
9,15
10,14
10,15
11,16
12,17
13,18
14,19
14,20
14,21
14,22
14,23
15,19
15,20
15,21
15,22
15,23
16,25
17,26
18,24
19,27
20,28
21,27
21,28
21,29
22,100
23,27
24,32
25,30
26,33
27,31
27,35
28,34
28,36
29,35
29,36
29,37
30,38
31,39
32,41
33,40
34,42
35,43
35,44
36,43
36,44
37,44
37,56
38,46
39,49
40,50
41,47
42,48
43,45
43,51
43,54
44,49
44,50
45,52
46,53
47,53
48,53
49,53
49,54
50,53
50,55
50,57
50,58
51,56
51,57
51,58
52,59
53,60
53,61
54,100
55,66
55,68
56,61
57,61
57,62
58,61
58,62
59,63
60,64
61,65
61,66
61,67
61,68
62,66
63,69
64,70
65,71
65,74
66,70
66,71
66,72
66,73
67,70
67,71
67,72
68,73
68,98
69,77
70,75
70,76
70,99
71,78
72,78
74,79
74,94
75,81
76,82
77,83
78,80
78,83
78,84
79,83
79,88
79,91
80,85
81,87
82,86
83,89
83,90
84,88
84,91
84,93
85,93
86,94
87,95
88,92
88,96
89,99
90,95
90,96
91,95
92,97
93,99
95,98
95,100

<end>
